Copyright (C) 2013-2015, Filipe Brandao
Build (method = -2)
  #dp: 40747
  Step-3' Graph: 663 vertices and 12119 arcs (0.15s)
  Step-4' Graph: 651 vertices and 12096 arcs (0.16s)
  #V4/#V3 = 0.98
  #A4/#A3 = 1.00
Ready! (0.16s)
Optimize a model with 694 rows, 12097 columns and 35002 nonzeros
Presolve removed 13 rows and 25 columns
Presolve time: 0.06s
Presolved: 681 rows, 12072 columns, 34955 nonzeros
Variable types: 0 continuous, 12072 integer (0 binary)
Optimize a model with 681 rows, 12072 columns and 34955 nonzeros
Presolved: 681 rows, 12072 columns, 34955 nonzeros

Root barrier log...

Ordering time: 0.00s

Barrier statistics:
 AA' NZ     : 2.286e+04
 Factor NZ  : 7.446e+04 (roughly 6 MBytes of memory)
 Factor Ops : 1.100e+07 (less than 1 second per iteration)
 Threads    : 1

                  Objective                Residual
Iter       Primal          Dual         Primal    Dual     Compl     Time
   0   1.64638604e+04 -8.30506578e+05  3.04e+05 2.22e-16  2.86e+02     0s
   1   4.90836679e+03 -2.15838670e+05  6.17e+04 1.33e-15  5.73e+01     0s
   2   1.77485048e+03 -1.01940839e+05  1.63e+04 1.02e-14  1.57e+01     0s
   3   8.48112502e+02 -3.67554890e+04  4.37e+03 2.49e-14  3.97e+00     0s
   4   5.44656767e+02 -1.32438527e+04  5.67e+02 2.75e-14  8.31e-01     0s
   5   5.03294941e+02 -4.19119455e+03  5.38e+01 4.17e-14  2.12e-01     0s
   6   4.97836587e+02 -8.07681848e+02  9.66e-02 8.88e-15  5.40e-02     0s
   7   4.84759487e+02 -7.95126932e+02  6.81e-02 8.77e-15  5.29e-02     0s
   8   4.59391974e+02 -7.23562081e+02  6.33e-02 8.33e-15  4.89e-02     0s
   9   4.55081644e+02 -6.24173080e+02  6.18e-02 7.33e-15  4.46e-02     0s
  10   3.95946129e+02 -4.32686184e+02  4.29e-02 4.88e-15  3.43e-02     0s
  11   3.52984265e+02 -3.31474261e+02  3.77e-02 3.33e-15  2.83e-02     0s
  12   2.64993988e+02 -2.59114109e+02  2.51e-02 2.89e-15  2.17e-02     0s
  13   1.75123904e+02 -1.16075841e+02  1.63e-02 1.55e-15  1.20e-02     0s
  14   1.10985167e+02 -4.95460370e+01  9.83e-03 1.41e-15  6.64e-03     0s
  15   8.78935878e+01 -2.27678003e+01  7.09e-03 1.25e-15  4.58e-03     0s
  16   7.51984233e+01 -1.11104694e+01  5.14e-03 1.60e-15  3.57e-03     0s
  17   7.00749828e+01 -2.80812830e+00  4.15e-03 1.68e-15  3.01e-03     0s
  18   6.88701702e+01  2.13571161e+01  3.14e-03 1.05e-15  1.96e-03     0s
  19   6.79060783e+01  3.22853301e+01  2.26e-03 1.36e-15  1.47e-03     0s
  20   6.11232235e+01  4.43555727e+01  9.58e-04 9.40e-16  6.93e-04     0s
  21   5.85370487e+01  5.23195736e+01  4.70e-04 1.05e-15  2.57e-04     0s
  22   5.65301391e+01  5.42322072e+01  1.43e-04 9.14e-16  9.50e-05     0s
  23   5.60441527e+01  5.49621730e+01  6.90e-05 9.68e-16  4.47e-05     0s
  24   5.57746911e+01  5.53364626e+01  2.87e-05 1.22e-15  1.81e-05     0s
  25   5.56020225e+01  5.55165190e+01  3.05e-06 9.44e-16  3.54e-06     0s
  26   5.55803558e+01  5.55781780e+01  5.07e-13 1.07e-15  9.00e-08     0s
  27   5.55800004e+01  5.55799982e+01  5.66e-13 1.11e-15  9.00e-11     0s
  28   5.55800000e+01  5.55800000e+01  1.69e-13 1.17e-15  1.83e-16     0s

Barrier solved model in 28 iterations and 0.22 seconds
Optimal objective 5.55800000e+01


Root relaxation: objective 5.558000e+01, 8352 iterations, 0.40 seconds

    Nodes    |    Current Node    |     Objective Bounds      |     Work
 Expl Unexpl |  Obj  Depth IntInf | Incumbent    BestBd   Gap | It/Node Time

     0     0   55.58000    0  198          -   55.58000     -      -    1s
H    0     0                     171.0000000   55.58000  67.5%     -    2s
H    0     0                      58.0000000   55.58000  4.17%     -    2s
H    0     0                      57.0000000   55.58000  2.49%     -    5s
     0     0   55.58000    0  210   57.00000   55.58000  2.49%     -    5s
     0     0   55.58000    0  215   57.00000   55.58000  2.49%     -    8s
     0     0   55.58000    0  112   57.00000   55.58000  2.49%     -   12s
H    0     0                      56.0000000   55.58000  0.75%     -   13s

Explored 0 nodes (30666 simplex iterations) in 13.05 seconds
Thread count was 1 (of 4 available processors)

Optimal solution found (tolerance 0.00e+00)
Best objective 5.600000000000e+01, best bound 5.600000000000e+01, gap 0.0%
Preprocessing time: 0.18 seconds
Gurobi run time: 13.05 seconds
Total run time: 13.23 seconds
Objective: 56
Solution:
1 x [i=1, i=2, i=19, i=21, i=23, i=25, i=43]
2 x [i=1, i=1, i=8, i=8, i=8, i=9, i=13, i=16]
2 x [i=1, i=1, i=16, i=20, i=25, i=26, i=29, i=37, i=42]
1 x [i=1, i=1, i=16, i=20, i=20, i=29, i=35, i=36, i=39]
1 x [i=2, i=10, i=15, i=28, i=28, i=32, i=36, i=38]
1 x [i=2, i=17, i=18, i=19, i=23, i=24, i=26, i=27]
1 x [i=2, i=17, i=18, i=19, i=23, i=24, i=26, i=34, i=34]
3 x [i=2, i=27, i=28, i=28, i=32, i=42, i=42, i=43, i=43, i=43]
1 x [i=3, i=5, i=6, i=7, i=8, i=8, i=9, i=18]
2 x [i=3, i=5, i=6, i=7, i=31, i=31, i=35, i=37, i=42]
1 x [i=3, i=10, i=12, i=15, i=19, i=31, i=34, i=36, i=37]
6 x [i=3, i=17, i=19, i=21, i=22, i=23, i=24, i=28, i=40]
3 x [i=4, i=5, i=10, i=16, i=17, i=31, i=35, i=37, i=42]
2 x [i=4, i=5, i=16, i=18, i=24, i=27, i=29, i=35, i=39]
3 x [i=4, i=5, i=16, i=20, i=20, i=22, i=35, i=36, i=39]
5 x [i=6, i=7, i=13, i=13, i=14, i=32, i=34, i=38, i=40]
5 x [i=6, i=10, i=12, i=14, i=15, i=29, i=32, i=38, i=41]
1 x [i=6, i=14, i=15, i=19, i=19, i=26, i=26, i=29, i=43]
1 x [i=6, i=14, i=18, i=18, i=19, i=19, i=31, i=35, i=37]
1 x [i=7, i=13, i=13, i=19, i=23, i=25, i=26, i=34, i=37]
3 x [i=7, i=17, i=18, i=18, i=21, i=24, i=24, i=29, i=39]
3 x [i=8, i=8, i=9, i=22, i=30, i=30, i=30, i=30, i=30]
4 x [i=10, i=11, i=12, i=15, i=25, i=27, i=31, i=33, i=33]
2 x [i=10, i=12, i=15, i=19, i=23, i=25, i=26, i=33, i=34]
1 x [i=10, i=10, i=11, i=17, i=24, i=26, i=27, i=31, i=41]
